20
0
87
201
221
19
61
30
51
66
43
43
62
93
110
135
294
42
119
26
140
35
425
41
263
86
71
82
63
22
94
146
26
36
570
68
26
31
38
40
53
30
236
48
24
37
336
41
48
196
297
208
264
18
52
40
23
38
42
67
59
47
85
0
295
62
22
66
210
510
26
1215
21
59
26
62
68
132
23
96
33
81
73
72
1023
154
523
125
92
94
310
60
66
0
39
58
137
43
36
18
